c Standarized MaxSat Instance
c{
c "sha1sum": "6466c52470440c74ff2c1fa14345ed00c02e7c60",
c "nvars": 140,
c "ncls": 1260,
c "nhards": 0,
c "nhard_len_stats":
c    { "min": 0, "max": 0, "ave": 0.00,
c      "stddev": 0.00 },
c "nsofts": 1260,
c "nsoft_len_stats":
c    { "min": 2, "max": 2, "ave": 2.00,
c      "stddev": 0.00 },
c "nsoft_wts": 1,
c "soft_wt_stats":
c    { "min": 1, "max": 1, "ave": 1.00,
c      "stddev": 0.00 }
c}
c------------------------------------------------------------
c strEdges: 189  randomEdges: 441 
c degrees:  2  3 
c girth: 10 max: 8.032766  
c Hgirth mixed MAXCUT instance
c generated from an undirected graph
c to solve unweighted MaxCut
p wcnf 140 1260 1261
1 52 111 0
1 -52 -111 0
1 52 45 0
1 -52 -45 0
1 52 43 0
1 -52 -43 0
1 93 108 0
1 -93 -108 0
1 93 68 0
1 -93 -68 0
1 93 20 0
1 -93 -20 0
1 90 132 0
1 -90 -132 0
1 90 121 0
1 -90 -121 0
1 90 17 0
1 -90 -17 0
1 28 121 0
1 -28 -121 0
1 28 9 0
1 -28 -9 0
1 28 58 0
1 -28 -58 0
1 89 46 0
1 -89 -46 0
1 89 68 0
1 -89 -68 0
1 89 94 0
1 -89 -94 0
1 11 97 0
1 -11 -97 0
1 11 81 0
1 -11 -81 0
1 39 131 0
1 -39 -131 0
1 39 14 0
1 -39 -14 0
1 39 61 0
1 -39 -61 0
1 10 31 0
1 -10 -31 0
1 10 131 0
1 -10 -131 0
1 74 17 0
1 -74 -17 0
1 74 117 0
1 -74 -117 0
1 74 131 0
1 -74 -131 0
1 109 98 0
1 -109 -98 0
1 109 140 0
1 -109 -140 0
1 109 14 0
1 -109 -14 0
1 95 54 0
1 -95 -54 0
1 95 19 0
1 -95 -19 0
1 95 59 0
1 -95 -59 0
1 116 43 0
1 -116 -43 0
1 116 102 0
1 -116 -102 0
1 63 8 0
1 -63 -8 0
1 63 53 0
1 -63 -53 0
1 63 9 0
1 -63 -9 0
1 32 92 0
1 -32 -92 0
1 32 132 0
1 -32 -132 0
1 32 30 0
1 -32 -30 0
1 23 106 0
1 -23 -106 0
1 23 34 0
1 -23 -34 0
1 62 81 0
1 -62 -81 0
1 62 92 0
1 -62 -92 0
1 138 140 0
1 -138 -140 0
1 138 130 0
1 -138 -130 0
1 138 99 0
1 -138 -99 0
1 118 114 0
1 -118 -114 0
1 118 19 0
1 -118 -19 0
1 118 91 0
1 -118 -91 0
1 78 34 0
1 -78 -34 0
1 78 121 0
1 -78 -121 0
1 49 42 0
1 -49 -42 0
1 49 72 0
1 -49 -72 0
1 49 20 0
1 -49 -20 0
1 82 53 0
1 -82 -53 0
1 82 71 0
1 -82 -71 0
1 82 91 0
1 -82 -91 0
1 65 44 0
1 -65 -44 0
1 65 31 0
1 -65 -31 0
1 65 97 0
1 -65 -97 0
1 119 57 0
1 -119 -57 0
1 119 61 0
1 -119 -61 0
1 119 128 0
1 -119 -128 0
1 113 120 0
1 -113 -120 0
1 113 97 0
1 -113 -97 0
1 113 106 0
1 -113 -106 0
1 16 68 0
1 -16 -68 0
1 16 105 0
1 -16 -105 0
1 16 53 0
1 -16 -53 0
1 75 61 0
1 -75 -61 0
1 75 8 0
1 -75 -8 0
1 86 20 0
1 -86 -20 0
1 86 3 0
1 -86 -3 0
1 86 136 0
1 -86 -136 0
1 27 19 0
1 -27 -19 0
1 27 99 0
1 -27 -99 0
1 27 42 0
1 -27 -42 0
1 18 30 0
1 -18 -30 0
1 18 60 0
1 -18 -60 0
1 51 2 0
1 -51 -2 0
1 51 44 0
1 -51 -44 0
1 13 71 0
1 -13 -71 0
1 13 135 0
1 -13 -135 0
1 13 98 0
1 -13 -98 0
1 29 94 0
1 -29 -94 0
1 29 21 0
1 -29 -21 0
1 29 57 0
1 -29 -57 0
1 85 6 0
1 -85 -6 0
1 85 77 0
1 -85 -77 0
1 85 36 0
1 -85 -36 0
1 137 112 0
1 -137 -112 0
1 137 60 0
1 -137 -60 0
1 137 43 0
1 -137 -43 0
1 40 58 0
1 -40 -58 0
1 40 129 0
1 -40 -129 0
1 40 36 0
1 -40 -36 0
1 124 72 0
1 -124 -72 0
1 124 83 0
1 -124 -83 0
1 7 47 0
1 -7 -47 0
1 7 104 0
1 -7 -104 0
1 1 129 0
1 -1 -129 0
1 1 100 0
1 -1 -100 0
1 96 100 0
1 -96 -100 0
1 96 3 0
1 -96 -3 0
1 48 59 0
1 -48 -59 0
1 48 58 0
1 -48 -58 0
1 48 108 0
1 -48 -108 0
1 103 33 0
1 -103 -33 0
1 103 50 0
1 -103 -50 0
1 103 135 0
1 -103 -135 0
1 115 83 0
1 -115 -83 0
1 115 46 0
1 -115 -46 0
1 133 9 0
1 -133 -9 0
1 133 130 0
1 -133 -130 0
1 67 117 0
1 -67 -117 0
1 67 42 0
1 -67 -42 0
1 67 47 0
1 -67 -47 0
1 87 136 0
1 -87 -136 0
1 87 81 0
1 -87 -81 0
1 87 128 0
1 -87 -128 0
1 64 70 0
1 -64 -70 0
1 64 112 0
1 -64 -112 0
1 64 8 0
1 -64 -8 0
1 37 84 0
1 -37 -84 0
1 37 107 0
1 -37 -107 0
1 26 56 0
1 -26 -56 0
1 26 88 0
1 -26 -88 0
1 26 34 0
1 -26 -34 0
1 79 5 0
1 -79 -5 0
1 79 70 0
1 -79 -70 0
1 79 77 0
1 -79 -77 0
1 73 21 0
1 -73 -21 0
1 73 72 0
1 -73 -72 0
1 76 130 0
1 -76 -130 0
1 76 5 0
1 -76 -5 0
1 4 99 0
1 -4 -99 0
1 4 44 0
1 -4 -44 0
1 4 84 0
1 -4 -84 0
1 123 60 0
1 -123 -60 0
1 123 2 0
1 -123 -2 0
1 123 83 0
1 -123 -83 0
1 134 105 0
1 -134 -105 0
1 134 106 0
1 -134 -106 0
1 134 102 0
1 -134 -102 0
1 125 110 0
1 -125 -110 0
1 125 120 0
1 -125 -120 0
1 125 94 0
1 -125 -94 0
1 55 128 0
1 -55 -128 0
1 55 59 0
1 -55 -59 0
1 55 33 0
1 -55 -33 0
1 101 107 0
1 -101 -107 0
1 101 50 0
1 -101 -50 0
1 101 88 0
1 -101 -88 0
1 38 45 0
1 -38 -45 0
1 38 54 0
1 -38 -54 0
1 38 110 0
1 -38 -110 0
1 80 122 0
1 -80 -122 0
1 80 84 0
1 -80 -84 0
1 80 46 0
1 -80 -46 0
1 139 66 0
1 -139 -66 0
1 139 98 0
1 -139 -98 0
1 139 111 0
1 -139 -111 0
1 25 88 0
1 -25 -88 0
1 25 5 0
1 -25 -5 0
1 25 21 0
1 -25 -21 0
1 41 36 0
1 -41 -36 0
1 41 66 0
1 -41 -66 0
1 41 47 0
1 -41 -47 0
1 35 91 0
1 -35 -91 0
1 35 6 0
1 -35 -6 0
1 126 3 0
1 -126 -3 0
1 126 56 0
1 -126 -56 0
1 126 45 0
1 -126 -45 0
1 22 50 0
1 -22 -50 0
1 22 30 0
1 -22 -30 0
1 22 104 0
1 -22 -104 0
1 12 104 0
1 -12 -104 0
1 12 105 0
1 -12 -105 0
1 24 77 0
1 -24 -77 0
1 24 122 0
1 -24 -122 0
1 24 136 0
1 -24 -136 0
1 127 102 0
1 -127 -102 0
1 127 129 0
1 -127 -129 0
1 15 135 0
1 -15 -135 0
1 15 31 0
1 -15 -31 0
1 15 100 0
1 -15 -100 0
1 69 14 0
1 -69 -14 0
1 69 114 0
1 -69 -114 0
1 69 107 0
1 -69 -107 0
1 114 5 0
1 -114 -5 0
1 133 44 0
1 -133 -44 0
1 38 99 0
1 -38 -99 0
1 35 114 0
1 -35 -114 0
1 137 107 0
1 -137 -107 0
1 65 101 0
1 -65 -101 0
1 11 123 0
1 -11 -123 0
1 65 24 0
1 -65 -24 0
1 131 54 0
1 -131 -54 0
1 23 110 0
1 -23 -110 0
1 87 102 0
1 -87 -102 0
1 94 77 0
1 -94 -77 0
1 7 60 0
1 -7 -60 0
1 66 3 0
1 -66 -3 0
1 32 87 0
1 -32 -87 0
1 118 136 0
1 -118 -136 0
1 78 111 0
1 -78 -111 0
1 29 72 0
1 -29 -72 0
1 63 124 0
1 -63 -124 0
1 39 103 0
1 -39 -103 0
1 27 130 0
1 -27 -130 0
1 91 102 0
1 -91 -102 0
1 15 45 0
1 -15 -45 0
1 123 112 0
1 -123 -112 0
1 131 61 0
1 -131 -61 0
1 90 130 0
1 -90 -130 0
1 64 17 0
1 -64 -17 0
1 62 55 0
1 -62 -55 0
1 134 59 0
1 -134 -59 0
1 56 5 0
1 -56 -5 0
1 27 122 0
1 -27 -122 0
1 74 87 0
1 -74 -87 0
1 119 59 0
1 -119 -59 0
1 100 14 0
1 -100 -14 0
1 115 45 0
1 -115 -45 0
1 78 64 0
1 -78 -64 0
1 111 97 0
1 -111 -97 0
1 37 125 0
1 -37 -125 0
1 124 22 0
1 -124 -22 0
1 106 81 0
1 -106 -81 0
1 127 15 0
1 -127 -15 0
1 118 121 0
1 -118 -121 0
1 11 2 0
1 -11 -2 0
1 82 73 0
1 -82 -73 0
1 9 3 0
1 -9 -3 0
1 28 126 0
1 -28 -126 0
1 115 54 0
1 -115 -54 0
1 129 36 0
1 -129 -36 0
1 62 128 0
1 -62 -128 0
1 109 71 0
1 -109 -71 0
1 22 107 0
1 -22 -107 0
1 58 83 0
1 -58 -83 0
1 90 40 0
1 -90 -40 0
1 78 106 0
1 -78 -106 0
1 94 50 0
1 -94 -50 0
1 31 36 0
1 -31 -36 0
1 72 102 0
1 -72 -102 0
1 93 64 0
1 -93 -64 0
1 103 110 0
1 -103 -110 0
1 25 126 0
1 -25 -126 0
1 93 3 0
1 -93 -3 0
1 69 44 0
1 -69 -44 0
1 138 103 0
1 -138 -103 0
1 51 73 0
1 -51 -73 0
1 57 72 0
1 -57 -72 0
1 10 139 0
1 -10 -139 0
1 43 68 0
1 -43 -68 0
1 92 3 0
1 -92 -3 0
1 108 17 0
1 -108 -17 0
1 64 91 0
1 -64 -91 0
1 82 106 0
1 -82 -106 0
1 62 83 0
1 -62 -83 0
1 109 1 0
1 -109 -1 0
1 76 14 0
1 -76 -14 0
1 8 57 0
1 -8 -57 0
1 49 84 0
1 -49 -84 0
1 41 98 0
1 -41 -98 0
1 125 91 0
1 -125 -91 0
1 133 136 0
1 -133 -136 0
1 123 42 0
1 -123 -42 0
1 129 56 0
1 -129 -56 0
1 122 77 0
1 -122 -77 0
1 33 122 0
1 -33 -122 0
1 73 81 0
1 -73 -81 0
1 32 34 0
1 -32 -34 0
1 133 66 0
1 -133 -66 0
1 10 35 0
1 -10 -35 0
1 94 84 0
1 -94 -84 0
1 85 139 0
1 -85 -139 0
1 93 115 0
1 -93 -115 0
1 13 101 0
1 -13 -101 0
1 48 79 0
1 -48 -79 0
1 23 125 0
1 -23 -125 0
1 55 97 0
1 -55 -97 0
1 86 50 0
1 -86 -50 0
1 4 12 0
1 -4 -12 0
1 64 35 0
1 -64 -35 0
1 81 58 0
1 -81 -58 0
1 82 29 0
1 -82 -29 0
1 4 97 0
1 -4 -97 0
1 54 68 0
1 -54 -68 0
1 1 20 0
1 -1 -20 0
1 41 20 0
1 -41 -20 0
1 51 13 0
1 -51 -13 0
1 137 76 0
1 -137 -76 0
1 96 70 0
1 -96 -70 0
1 61 102 0
1 -61 -102 0
1 96 55 0
1 -96 -55 0
1 26 73 0
1 -26 -73 0
1 87 61 0
1 -87 -61 0
1 118 130 0
1 -118 -130 0
1 90 11 0
1 -90 -11 0
1 11 85 0
1 -11 -85 0
1 138 114 0
1 -138 -114 0
1 75 124 0
1 -75 -124 0
1 65 108 0
1 -65 -108 0
1 128 50 0
1 -128 -50 0
1 92 110 0
1 -92 -110 0
1 10 8 0
1 -10 -8 0
1 52 91 0
1 -52 -91 0
1 139 3 0
1 -139 -3 0
1 35 3 0
1 -35 -3 0
1 138 12 0
1 -138 -12 0
1 10 121 0
1 -10 -121 0
1 90 14 0
1 -90 -14 0
1 24 140 0
1 -24 -140 0
1 16 106 0
1 -16 -106 0
1 81 136 0
1 -81 -136 0
1 92 129 0
1 -92 -129 0
1 89 63 0
1 -89 -63 0
1 2 88 0
1 -2 -88 0
1 94 83 0
1 -94 -83 0
1 28 68 0
1 -28 -68 0
1 12 69 0
1 -12 -69 0
1 121 17 0
1 -121 -17 0
1 131 5 0
1 -131 -5 0
1 2 84 0
1 -2 -84 0
1 111 70 0
1 -111 -70 0
1 20 130 0
1 -20 -130 0
1 35 117 0
1 -35 -117 0
1 133 80 0
1 -133 -80 0
1 25 83 0
1 -25 -83 0
1 17 112 0
1 -17 -112 0
1 49 113 0
1 -49 -113 0
1 126 6 0
1 -126 -6 0
1 83 60 0
1 -83 -60 0
1 121 120 0
1 -121 -120 0
1 131 53 0
1 -131 -53 0
1 46 106 0
1 -46 -106 0
1 101 60 0
1 -101 -60 0
1 101 66 0
1 -101 -66 0
1 1 101 0
1 -1 -101 0
1 23 82 0
1 -23 -82 0
1 73 50 0
1 -73 -50 0
1 15 20 0
1 -15 -20 0
1 138 69 0
1 -138 -69 0
1 32 124 0
1 -32 -124 0
1 12 130 0
1 -12 -130 0
1 116 25 0
1 -116 -25 0
1 1 45 0
1 -1 -45 0
1 76 131 0
1 -76 -131 0
1 118 51 0
1 -118 -51 0
1 125 20 0
1 -125 -20 0
1 18 111 0
1 -18 -111 0
1 19 14 0
1 -19 -14 0
1 65 5 0
1 -65 -5 0
1 101 58 0
1 -101 -58 0
1 108 19 0
1 -108 -19 0
1 42 72 0
1 -42 -72 0
1 87 8 0
1 -87 -8 0
1 115 136 0
1 -115 -136 0
1 103 9 0
1 -103 -9 0
1 2 3 0
1 -2 -3 0
1 74 137 0
1 -74 -137 0
1 101 57 0
1 -101 -57 0
1 98 2 0
1 -98 -2 0
1 28 109 0
1 -28 -109 0
1 83 110 0
1 -83 -110 0
1 25 104 0
1 -25 -104 0
1 136 99 0
1 -136 -99 0
1 134 57 0
1 -134 -57 0
1 80 81 0
1 -80 -81 0
1 87 121 0
1 -87 -121 0
1 63 22 0
1 -63 -22 0
1 123 104 0
1 -123 -104 0
1 119 24 0
1 -119 -24 0
1 63 45 0
1 -63 -45 0
1 109 25 0
1 -109 -25 0
1 16 4 0
1 -16 -4 0
1 131 59 0
1 -131 -59 0
1 17 50 0
1 -17 -50 0
1 126 77 0
1 -126 -77 0
1 31 112 0
1 -31 -112 0
1 79 8 0
1 -79 -8 0
1 62 120 0
1 -62 -120 0
1 49 48 0
1 -49 -48 0
1 113 45 0
1 -113 -45 0
1 92 19 0
1 -92 -19 0
1 23 40 0
1 -23 -40 0
1 103 17 0
1 -103 -17 0
1 4 125 0
1 -4 -125 0
1 112 59 0
1 -112 -59 0
1 62 37 0
1 -62 -37 0
1 25 61 0
1 -25 -61 0
1 28 97 0
1 -28 -97 0
1 63 119 0
1 -63 -119 0
1 9 130 0
1 -9 -130 0
1 86 18 0
1 -86 -18 0
1 75 12 0
1 -75 -12 0
1 94 117 0
1 -94 -117 0
1 82 26 0
1 -82 -26 0
1 90 18 0
1 -90 -18 0
1 115 71 0
1 -115 -71 0
1 137 31 0
1 -137 -31 0
1 27 36 0
1 -27 -36 0
1 82 111 0
1 -82 -111 0
1 65 4 0
1 -65 -4 0
1 52 62 0
1 -52 -62 0
1 63 58 0
1 -63 -58 0
1 96 68 0
1 -96 -68 0
1 63 54 0
1 -63 -54 0
1 18 73 0
1 -18 -73 0
1 1 81 0
1 -1 -81 0
1 31 122 0
1 -31 -122 0
1 17 57 0
1 -17 -57 0
1 52 30 0
1 -52 -30 0
1 76 80 0
1 -76 -80 0
1 115 94 0
1 -115 -94 0
1 72 110 0
1 -72 -110 0
1 10 99 0
1 -10 -99 0
1 62 71 0
1 -62 -71 0
1 1 80 0
1 -1 -80 0
1 113 57 0
1 -113 -57 0
1 7 8 0
1 -7 -8 0
1 8 130 0
1 -8 -130 0
1 16 64 0
1 -16 -64 0
1 105 88 0
1 -105 -88 0
1 34 6 0
1 -34 -6 0
1 78 35 0
1 -78 -35 0
1 1 87 0
1 -1 -87 0
1 28 80 0
1 -28 -80 0
1 101 19 0
1 -101 -19 0
1 8 135 0
1 -8 -135 0
1 25 41 0
1 -25 -41 0
1 32 101 0
1 -32 -101 0
1 12 94 0
1 -12 -94 0
1 40 135 0
1 -40 -135 0
1 119 7 0
1 -119 -7 0
1 39 35 0
1 -39 -35 0
1 123 3 0
1 -123 -3 0
1 115 19 0
1 -115 -19 0
1 97 136 0
1 -97 -136 0
1 11 37 0
1 -11 -37 0
1 29 127 0
1 -29 -127 0
1 101 132 0
1 -101 -132 0
1 96 43 0
1 -96 -43 0
1 1 115 0
1 -1 -115 0
1 139 84 0
1 -139 -84 0
1 19 2 0
1 -19 -2 0
1 63 49 0
1 -63 -49 0
1 106 122 0
1 -106 -122 0
1 32 61 0
1 -32 -61 0
1 133 8 0
1 -133 -8 0
1 29 35 0
1 -29 -35 0
1 13 41 0
1 -13 -41 0
1 125 77 0
1 -125 -77 0
1 125 3 0
1 -125 -3 0
1 82 136 0
1 -82 -136 0
1 7 139 0
1 -7 -139 0
1 62 34 0
1 -62 -34 0
1 73 107 0
1 -73 -107 0
1 74 43 0
1 -74 -43 0
1 27 37 0
1 -27 -37 0
1 119 75 0
1 -119 -75 0
1 95 117 0
1 -95 -117 0
1 53 122 0
1 -53 -122 0
1 48 84 0
1 -48 -84 0
1 32 91 0
1 -32 -91 0
1 100 130 0
1 -100 -130 0
1 69 99 0
1 -69 -99 0
1 47 77 0
1 -47 -77 0
1 101 102 0
1 -101 -102 0
1 139 36 0
1 -139 -36 0
1 72 33 0
1 -72 -33 0
1 125 107 0
1 -125 -107 0
1 11 3 0
1 -11 -3 0
1 82 61 0
1 -82 -61 0
1 19 33 0
1 -19 -33 0
1 132 3 0
1 -132 -3 0
1 41 42 0
1 -41 -42 0
1 85 2 0
1 -85 -2 0
1 109 18 0
1 -109 -18 0
1 94 3 0
1 -94 -3 0
1 131 47 0
1 -131 -47 0
1 65 37 0
1 -65 -37 0
1 38 3 0
1 -38 -3 0
1 118 123 0
1 -118 -123 0
1 111 130 0
1 -111 -130 0
1 137 57 0
1 -137 -57 0
1 54 14 0
1 -54 -14 0
1 16 22 0
1 -16 -22 0
1 98 70 0
1 -98 -70 0
1 69 34 0
1 -69 -34 0
1 58 91 0
1 -58 -91 0
1 85 61 0
1 -85 -61 0
1 39 140 0
1 -39 -140 0
1 18 124 0
1 -18 -124 0
1 92 120 0
1 -92 -120 0
1 49 47 0
1 -49 -47 0
1 42 58 0
1 -42 -58 0
1 87 60 0
1 -87 -60 0
1 127 136 0
1 -127 -136 0
1 57 120 0
1 -57 -120 0
1 85 133 0
1 -85 -133 0
1 127 8 0
1 -127 -8 0
1 99 14 0
1 -99 -14 0
1 55 20 0
1 -55 -20 0
1 75 127 0
1 -75 -127 0
1 37 102 0
1 -37 -102 0
1 83 117 0
1 -83 -117 0
1 63 2 0
1 -63 -2 0
1 118 115 0
1 -118 -115 0
1 20 19 0
1 -20 -19 0
1 63 79 0
1 -63 -79 0
1 86 132 0
1 -86 -132 0
1 118 87 0
1 -118 -87 0
1 75 48 0
1 -75 -48 0
1 63 40 0
1 -63 -40 0
1 137 4 0
1 -137 -4 0
1 133 106 0
1 -133 -106 0
1 72 66 0
1 -72 -66 0
1 96 133 0
1 -96 -133 0
1 65 84 0
1 -65 -84 0
1 127 14 0
1 -127 -14 0
1 61 88 0
1 -61 -88 0
1 52 109 0
1 -52 -109 0
1 115 26 0
1 -115 -26 0
1 131 58 0
1 -131 -58 0
1 80 131 0
1 -80 -131 0
1 47 36 0
1 -47 -36 0
1 15 97 0
1 -15 -97 0
1 120 83 0
1 -120 -83 0
1 10 45 0
1 -10 -45 0
1 80 120 0
1 -80 -120 0
1 95 75 0
1 -95 -75 0
1 11 19 0
1 -11 -19 0
1 76 19 0
1 -76 -19 0
1 120 94 0
1 -120 -94 0
1 38 120 0
1 -38 -120 0
1 115 4 0
1 -115 -4 0
1 54 5 0
1 -54 -5 0
1 42 59 0
1 -42 -59 0
1 111 36 0
1 -111 -36 0
1 93 31 0
1 -93 -31 0
1 38 130 0
1 -38 -130 0
1 85 30 0
1 -85 -30 0
1 127 108 0
1 -127 -108 0
1 13 102 0
1 -13 -102 0
1 28 71 0
1 -28 -71 0
1 17 6 0
1 -17 -6 0
1 75 68 0
1 -75 -68 0
1 95 92 0
1 -95 -92 0
1 97 21 0
1 -97 -21 0
1 39 43 0
1 -39 -43 0
1 126 57 0
1 -126 -57 0
1 49 87 0
1 -49 -87 0
1 11 39 0
1 -11 -39 0
1 29 6 0
1 -29 -6 0
1 137 22 0
1 -137 -22 0
1 39 114 0
1 -39 -114 0
1 73 15 0
1 -73 -15 0
1 16 99 0
1 -16 -99 0
1 51 34 0
1 -51 -34 0
1 42 83 0
1 -42 -83 0
1 62 108 0
1 -62 -108 0
1 116 106 0
1 -116 -106 0
1 51 29 0
1 -51 -29 0
1 75 120 0
1 -75 -120 0
1 90 27 0
1 -90 -27 0
1 75 19 0
1 -75 -19 0
1 76 139 0
1 -76 -139 0
1 96 101 0
1 -96 -101 0
1 75 137 0
1 -75 -137 0
1 44 57 0
1 -44 -57 0
1 100 21 0
1 -100 -21 0
1 103 94 0
1 -103 -94 0
1 78 114 0
1 -78 -114 0
1 25 129 0
1 -25 -129 0
1 105 135 0
1 -105 -135 0
1 115 55 0
1 -115 -55 0
1 74 56 0
1 -74 -56 0
1 90 119 0
1 -90 -119 0
1 27 97 0
1 -27 -97 0
1 139 14 0
1 -139 -14 0
1 137 21 0
1 -137 -21 0
1 12 45 0
1 -12 -45 0
1 26 126 0
1 -26 -126 0
1 63 62 0
1 -63 -62 0
1 126 31 0
1 -126 -31 0
1 41 100 0
1 -41 -100 0
1 90 34 0
1 -90 -34 0
1 25 6 0
1 -25 -6 0
1 44 50 0
1 -44 -50 0
1 65 40 0
1 -65 -40 0
1 82 45 0
1 -82 -45 0
1 10 129 0
1 -10 -129 0
1 95 101 0
1 -95 -101 0
1 35 81 0
1 -35 -81 0
1 34 130 0
1 -34 -130 0
1 31 120 0
1 -31 -120 0
1 81 128 0
1 -81 -128 0
1 119 115 0
1 -119 -115 0
1 10 15 0
1 -10 -15 0
1 23 113 0
1 -23 -113 0
1 19 100 0
1 -19 -100 0
1 134 61 0
1 -134 -61 0
1 4 2 0
1 -4 -2 0
1 33 110 0
1 -33 -110 0
1 10 130 0
1 -10 -130 0
1 137 48 0
1 -137 -48 0
1 109 46 0
1 -109 -46 0
1 124 122 0
1 -124 -122 0
1 103 19 0
1 -103 -19 0
1 18 139 0
1 -18 -139 0
1 63 133 0
1 -63 -133 0
1 81 102 0
1 -81 -102 0
1 51 17 0
1 -51 -17 0
1 90 109 0
1 -90 -109 0
1 59 36 0
1 -59 -36 0
1 138 87 0
1 -138 -87 0
1 7 22 0
1 -7 -22 0
1 114 99 0
1 -114 -99 0
1 27 64 0
1 -27 -64 0
1 138 86 0
1 -138 -86 0
1 13 123 0
1 -13 -123 0
1 137 129 0
1 -137 -129 0
1 116 4 0
1 -116 -4 0
1 3 14 0
1 -3 -14 0
1 98 50 0
1 -98 -50 0
1 103 73 0
1 -103 -73 0
1 4 110 0
1 -4 -110 0
